--- Job thunder.gms Start 06/09/20 22:21:09 31.1.0 r55b6ce3 WEX-WEI x86 64bit/MS Windows
--- Applying:
    E:\31.1\gmsprmNT.txt
--- GAMS Parameters defined
    Input C:\Users\hasee\Documents\GitHub\GAMS-MIRO\Thundercloud\thunder.gms
    ScrDir C:\Users\hasee\Documents\GitHub\GAMS-MIRO\Thundercloud\225a\
    SysDir E:\31.1\
    CurDir C:\Users\hasee\Documents\GitHub\GAMS-MIRO\Thundercloud\
    LogOption 3
    Trace C:\Users\hasee\Documents\GitHub\GAMS-MIRO\Thundercloud\_sys_trace_thunder.trc
    InputDir1 C:\Users\hasee\Documents\GitHub\GAMS-MIRO\Thundercloud\
    TraceOpt 3
    ExecMode 0
    LstTitleLeftAligned 1
    IDCGDXInput _miro_gdxin_.gdx
    IDCGDXOutput _miro_gdxout_.gdx
GAMS 31.1.0   Copyright (C) 1987-2020 GAMS Development. All rights reserved
Licensee: CS526 Advanced Linear Programming              G200210/0001AS-GEN
          Course License UW-Madison, Prof Ferris, Spring 2020        DCE515
          E:\31.1\gamslice.txt
          Evaluation license: Not for commercial or production use
--- Starting compilation
--- thunder.gms(30) 3 Mb
--- GDXin=C:\Users\hasee\Documents\GitHub\GAMS-MIRO\Thundercloud\_miro_gdxin_.gdx
--- thunder.gms(187) 3 Mb
--- Starting execution: elapsed 0:00:00.013
--- thunder.gms(93) 4 Mb--- thunder.gms(94) 4 Mb--- thunder.gms(95) 4 Mb--- thunder.gms(96) 4 Mb--- thunder.gms(97) 4 Mb--- thunder.gms(98) 4 Mb--- thunder.gms(104) 4 Mb--- thunder.gms(105) 4 Mb--- thunder.gms(107) 4 Mb--- thunder.gms(108) 4 Mb--- thunder.gms(110) 4 Mb--- thunder.gms(111) 4 Mb--- thunder.gms(113) 4 Mb--- thunder.gms(114) 4 Mb--- thunder.gms(116) 4 Mb--- thunder.gms(117) 4 Mb--- thunder.gms(120) 4 Mb--- thunder.gms(122) 4 Mb--- thunder.gms(123) 4 Mb--- thunder.gms(124) 4 Mb--- thunder.gms(125) 4 Mb--- thunder.gms(126) 4 Mb--- thunder.gms(142) 4 Mb--- thunder.gms(143) 4 Mb--- thunder.gms(151) 4 Mb
--- Generating LP model airplane
--- thunder.gms(169) 5 Mb
---   1,278 rows  2,770 columns  7,825 non-zeroes
--- Executing CPLEX: elapsed 0:00:06.614

IBM ILOG CPLEX   31.1.0 r55b6ce3 Released May 01, 2020 WEI x86 64bit/MS Window
--- GAMS/Cplex licensed for continuous and discrete problems.
Cplex 12.10.0.0

Reading data...
Starting Cplex...
Space for names approximately 0.08 Mb
Use option 'names no' to turn use of names off
Version identifier: 12.10.0.0 | 2019-11-26 | 843d4de2ae
CPXPARAM_Advance                                 0
CPXPARAM_Threads                                 1
CPXPARAM_Parallel                                1
CPXPARAM_Simplex_Limits_Iterations               2000000000
CPXPARAM_TimeLimit                               1000
CPXPARAM_Tune_TimeLimit                          200
Row 'balance(801)' infeasible, all entries at implied bounds.
Presolve time = 0.00 sec. (0.61 ticks)
LP status(3): infeasible
Cplex Time: 0.00sec (det. 0.61 ticks)
Rerunning with presolve turned off and solving with LPMETHOD=1
Version identifier: 12.10.0.0 | 2019-11-26 | 843d4de2ae
CPXPARAM_Advance                                 2
CPXPARAM_Preprocessing_Presolve                  0
CPXPARAM_LPMethod                                1
CPXPARAM_Threads                                 1
CPXPARAM_Parallel                                1
CPXPARAM_Simplex_Limits_Iterations               2000000000
CPXPARAM_TimeLimit                               1000
CPXPARAM_Tune_TimeLimit                          200

Iteration log . . .
Iteration:     1    Infeasibility =             2.999997
Iteration:   224    Infeasibility =             1.999995
LP status(3): infeasible
Cplex Time: 0.00sec (det. 3.01 ticks)

Model has been proven infeasible.
--- Restarting execution
--- thunder.gms(169) 3 Mb
--- Reading solution for model airplane
--- thunder.gms(187) 4 Mb
--- GDX File C:\Users\hasee\Documents\GitHub\GAMS-MIRO\Thundercloud\_miro_gdxout_.gdx
*** Status: Normal completion
--- Job thunder.gms Stop 06/09/20 22:21:16 elapsed 0:00:06.874
